\ LP format - for model browsing. Use MPS format to capture full model detail.
Minimize
 [ 2 Sum[0] ^2 + 2 Sum[1] ^2 + 2 Sum[2] ^2 + 2 Sum[3] ^2 + 2 Sum[4] ^2
   + 2 Sum[5] ^2 ] / 2 
Subject To
 c0_29: x[29,0] + x[29,1] + x[29,2] + x[29,3] + x[29,4] + x[29,5] = 1
 c0_16: x[16,0] + x[16,1] + x[16,2] + x[16,3] + x[16,4] + x[16,5] = 1
 c0_12: x[12,0] + x[12,1] + x[12,2] + x[12,3] + x[12,4] + x[12,5] = 1
 c0_15: x[15,0] + x[15,1] + x[15,2] + x[15,3] + x[15,4] + x[15,5] = 1
 c0_1: x[1,0] + x[1,1] + x[1,2] + x[1,3] + x[1,4] + x[1,5] = 1
 c0_4: x[4,0] + x[4,1] + x[4,2] + x[4,3] + x[4,4] + x[4,5] = 1
 c0_25: x[25,0] + x[25,1] + x[25,2] + x[25,3] + x[25,4] + x[25,5] = 1
 c0_3: x[3,0] + x[3,1] + x[3,2] + x[3,3] + x[3,4] + x[3,5] = 1
 c0_21: x[21,0] + x[21,1] + x[21,2] + x[21,3] + x[21,4] + x[21,5] = 1
 c0_17: x[17,0] + x[17,1] + x[17,2] + x[17,3] + x[17,4] + x[17,5] = 1
 c0_18: x[18,0] + x[18,1] + x[18,2] + x[18,3] + x[18,4] + x[18,5] = 1
 c0_19: x[19,0] + x[19,1] + x[19,2] + x[19,3] + x[19,4] + x[19,5] = 1
 c0_24: x[24,0] + x[24,1] + x[24,2] + x[24,3] + x[24,4] + x[24,5] = 1
 c0_7: x[7,0] + x[7,1] + x[7,2] + x[7,3] + x[7,4] + x[7,5] = 1
 c0_28: x[28,0] + x[28,1] + x[28,2] + x[28,3] + x[28,4] + x[28,5] = 1
 c0_10: x[10,0] + x[10,1] + x[10,2] + x[10,3] + x[10,4] + x[10,5] = 1
 c0_23: x[23,0] + x[23,1] + x[23,2] + x[23,3] + x[23,4] + x[23,5] = 1
 c0_14: x[14,0] + x[14,1] + x[14,2] + x[14,3] + x[14,4] + x[14,5] = 1
 c0_8: x[8,0] + x[8,1] + x[8,2] + x[8,3] + x[8,4] + x[8,5] = 1
 c0_13: x[13,0] + x[13,1] + x[13,2] + x[13,3] + x[13,4] + x[13,5] = 1
 c0_20: x[20,0] + x[20,1] + x[20,2] + x[20,3] + x[20,4] + x[20,5] = 1
 c0_11: x[11,0] + x[11,1] + x[11,2] + x[11,3] + x[11,4] + x[11,5] = 1
 c0_26: x[26,0] + x[26,1] + x[26,2] + x[26,3] + x[26,4] + x[26,5] = 1
 c0_2: x[2,0] + x[2,1] + x[2,2] + x[2,3] + x[2,4] + x[2,5] = 1
 c0_6: x[6,0] + x[6,1] + x[6,2] + x[6,3] + x[6,4] + x[6,5] = 1
 c0_22: x[22,0] + x[22,1] + x[22,2] + x[22,3] + x[22,4] + x[22,5] = 1
 c0_0: x[0,0] + x[0,1] + x[0,2] + x[0,3] + x[0,4] + x[0,5] = 1
 c0_9: x[9,0] + x[9,1] + x[9,2] + x[9,3] + x[9,4] + x[9,5] = 1
 c0_27: x[27,0] + x[27,1] + x[27,2] + x[27,3] + x[27,4] + x[27,5] = 1
 c0_5: x[5,0] + x[5,1] + x[5,2] + x[5,3] + x[5,4] + x[5,5] = 1
 c1_0: - 0.079 x[29,0] - 0.024 x[16,0] - 0.459 x[12,0] - 0.015 x[15,0]
   - 0.078 x[1,0] - 0.254 x[4,0] - 0.092 x[25,0] - 0.06 x[3,0]
   - 0.051 x[21,0] - 0.016 x[17,0] - 0.147 x[18,0] - 0.105 x[19,0]
   - 0.062 x[24,0] - 0.034 x[7,0] - 0.246 x[28,0] - 0.141 x[10,0]
   - 0.021 x[23,0] - 0.22 x[14,0] - 0.512 x[8,0] - 0.052 x[13,0]
   - 0.016 x[20,0] - 0.375 x[11,0] - 0.025 x[26,0] - 0.033 x[2,0]
   - 0.02 x[6,0] - 0.019 x[22,0] - 0.718 x[9,0] - 0.073 x[27,0]
   - 0.126 x[5,0] + Sum[0] = 0
 c1_1: - 0.079 x[29,1] - 0.024 x[16,1] - 0.459 x[12,1] - 0.015 x[15,1]
   - 0.078 x[1,1] - 0.254 x[4,1] - 0.092 x[25,1] - 0.06 x[3,1]
   - 0.051 x[21,1] - 0.016 x[17,1] - 0.147 x[18,1] - 0.105 x[19,1]
   - 0.062 x[24,1] - 0.034 x[7,1] - 0.246 x[28,1] - 0.141 x[10,1]
   - 0.021 x[23,1] - 0.22 x[14,1] - 0.512 x[8,1] - 0.052 x[13,1]
   - 0.016 x[20,1] - 0.375 x[11,1] - 0.025 x[26,1] - 0.033 x[2,1]
   - 0.02 x[6,1] - 0.019 x[22,1] - 0.718 x[9,1] - 0.073 x[27,1]
   - 0.126 x[5,1] + Sum[1] = 0
 c1_2: - 0.079 x[29,2] - 0.024 x[16,2] - 0.459 x[12,2] - 0.015 x[15,2]
   - 0.078 x[1,2] - 0.254 x[4,2] - 0.092 x[25,2] - 0.06 x[3,2]
   - 0.051 x[21,2] - 0.016 x[17,2] - 0.147 x[18,2] - 0.105 x[19,2]
   - 0.062 x[24,2] - 0.034 x[7,2] - 0.246 x[28,2] - 0.141 x[10,2]
   - 0.021 x[23,2] - 0.22 x[14,2] - 0.512 x[8,2] - 0.052 x[13,2]
   - 0.016 x[20,2] - 0.375 x[11,2] - 0.025 x[26,2] - 0.033 x[2,2]
   - 0.02 x[6,2] - 0.019 x[22,2] - 0.718 x[9,2] - 0.073 x[27,2]
   - 0.126 x[5,2] + Sum[2] = 0
 c1_3: - 0.079 x[29,3] - 0.024 x[16,3] - 0.459 x[12,3] - 0.015 x[15,3]
   - 0.078 x[1,3] - 0.254 x[4,3] - 0.092 x[25,3] - 0.06 x[3,3]
   - 0.051 x[21,3] - 0.016 x[17,3] - 0.147 x[18,3] - 0.105 x[19,3]
   - 0.062 x[24,3] - 0.034 x[7,3] - 0.246 x[28,3] - 0.141 x[10,3]
   - 0.021 x[23,3] - 0.22 x[14,3] - 0.512 x[8,3] - 0.052 x[13,3]
   - 0.016 x[20,3] - 0.375 x[11,3] - 0.025 x[26,3] - 0.033 x[2,3]
   - 0.02 x[6,3] - 0.019 x[22,3] - 0.718 x[9,3] - 0.073 x[27,3]
   - 0.126 x[5,3] + Sum[3] = 0
 c1_4: - 0.079 x[29,4] - 0.024 x[16,4] - 0.459 x[12,4] - 0.015 x[15,4]
   - 0.078 x[1,4] - 0.254 x[4,4] - 0.092 x[25,4] - 0.06 x[3,4]
   - 0.051 x[21,4] - 0.016 x[17,4] - 0.147 x[18,4] - 0.105 x[19,4]
   - 0.062 x[24,4] - 0.034 x[7,4] - 0.246 x[28,4] - 0.141 x[10,4]
   - 0.021 x[23,4] - 0.22 x[14,4] - 0.512 x[8,4] - 0.052 x[13,4]
   - 0.016 x[20,4] - 0.375 x[11,4] - 0.025 x[26,4] - 0.033 x[2,4]
   - 0.02 x[6,4] - 0.019 x[22,4] - 0.718 x[9,4] - 0.073 x[27,4]
   - 0.126 x[5,4] + Sum[4] = 0
 c1_5: - 0.079 x[29,5] - 0.024 x[16,5] - 0.459 x[12,5] - 0.015 x[15,5]
   - 0.078 x[1,5] - 0.254 x[4,5] - 0.092 x[25,5] - 0.06 x[3,5]
   - 0.051 x[21,5] - 0.016 x[17,5] - 0.147 x[18,5] - 0.105 x[19,5]
   - 0.062 x[24,5] - 0.034 x[7,5] - 0.246 x[28,5] - 0.141 x[10,5]
   - 0.021 x[23,5] - 0.22 x[14,5] - 0.512 x[8,5] - 0.052 x[13,5]
   - 0.016 x[20,5] - 0.375 x[11,5] - 0.025 x[26,5] - 0.033 x[2,5]
   - 0.02 x[6,5] - 0.019 x[22,5] - 0.718 x[9,5] - 0.073 x[27,5]
   - 0.126 x[5,5] + Sum[5] = 0
Bounds
Binaries
 x[29,0] x[29,1] x[29,2] x[29,3] x[29,4] x[29,5] x[16,0] x[16,1] x[16,2]
 x[16,3] x[16,4] x[16,5] x[12,0] x[12,1] x[12,2] x[12,3] x[12,4] x[12,5]
 x[15,0] x[15,1] x[15,2] x[15,3] x[15,4] x[15,5] x[1,0] x[1,1] x[1,2]
 x[1,3] x[1,4] x[1,5] x[4,0] x[4,1] x[4,2] x[4,3] x[4,4] x[4,5] x[25,0]
 x[25,1] x[25,2] x[25,3] x[25,4] x[25,5] x[3,0] x[3,1] x[3,2] x[3,3] x[3,4]
 x[3,5] x[21,0] x[21,1] x[21,2] x[21,3] x[21,4] x[21,5] x[17,0] x[17,1]
 x[17,2] x[17,3] x[17,4] x[17,5] x[18,0] x[18,1] x[18,2] x[18,3] x[18,4]
 x[18,5] x[19,0] x[19,1] x[19,2] x[19,3] x[19,4] x[19,5] x[24,0] x[24,1]
 x[24,2] x[24,3] x[24,4] x[24,5] x[7,0] x[7,1] x[7,2] x[7,3] x[7,4] x[7,5]
 x[28,0] x[28,1] x[28,2] x[28,3] x[28,4] x[28,5] x[10,0] x[10,1] x[10,2]
 x[10,3] x[10,4] x[10,5] x[23,0] x[23,1] x[23,2] x[23,3] x[23,4] x[23,5]
 x[14,0] x[14,1] x[14,2] x[14,3] x[14,4] x[14,5] x[8,0] x[8,1] x[8,2]
 x[8,3] x[8,4] x[8,5] x[13,0] x[13,1] x[13,2] x[13,3] x[13,4] x[13,5]
 x[20,0] x[20,1] x[20,2] x[20,3] x[20,4] x[20,5] x[11,0] x[11,1] x[11,2]
 x[11,3] x[11,4] x[11,5] x[26,0] x[26,1] x[26,2] x[26,3] x[26,4] x[26,5]
 x[2,0] x[2,1] x[2,2] x[2,3] x[2,4] x[2,5] x[6,0] x[6,1] x[6,2] x[6,3]
 x[6,4] x[6,5] x[22,0] x[22,1] x[22,2] x[22,3] x[22,4] x[22,5] x[0,0]
 x[0,1] x[0,2] x[0,3] x[0,4] x[0,5] x[9,0] x[9,1] x[9,2] x[9,3] x[9,4]
 x[9,5] x[27,0] x[27,1] x[27,2] x[27,3] x[27,4] x[27,5] x[5,0] x[5,1]
 x[5,2] x[5,3] x[5,4] x[5,5]
End
